(set-logic BV)

(synth-fun deobfucated ( (b (BitVec 64))  ) (BitVec 64)
	(
		(Start (BitVec 64)
			(
				(bvnot Start)
				(bvxor Start Start)
				(bvand Start Start)
				(bvor Start Start)
				(bvneg Start)
				(bvadd Start Start)
				(bvmul Start Start)
				(bvsub Start Start)
				b
			)
		)
	)
)

(constraint (= (deobfucated #x0000000007bef91d) #xffc3ffe9a8cb9999))
(constraint (= (deobfucated #x0000000017440843) #xfde2b46f7adfb633))
(constraint (= (deobfucated #x00000000247e580a) #xfacc38e24362c791))
(constraint (= (deobfucated #x000000001c80c377) #xfcd39479cf40bb37))
(constraint (= (deobfucated #x00000000321418cc) #xf63424bc3ba504a3))
(constraint (= (deobfucated #x000000001eade223) #xfc52c8e442424d13))
(constraint (= (deobfucated #x0000000000c4f007) #xffff687f9375efc7))
(constraint (= (deobfucated #x0000000025cb283c) #xfa6ba525acba09b3))
(constraint (= (deobfucated #x000000003549db19) #xf4e855f8c0f05c75))
(constraint (= (deobfucated #x0000000027ecf7b7) #xf9c5f12c6cf86377))
(constraint (= (deobfucated #x000000001b390222) #xfd1aecdac59e7159))
(constraint (= (deobfucated #x000000001f0ad8f5) #xfc3c5efedff2cc91))
(constraint (= (deobfucated #x00000000111ac413) #xfedb6f28fedc2283))
(constraint (= (deobfucated #x000000001a7a1e0b) #xfd42f7a503834d7b))
(constraint (= (deobfucated #x000000000a017541) #xff9be2d4c1c8103d))
(constraint (= (deobfucated #x000000001c1fde81) #xfce9035c073e247d))
(constraint (= (deobfucated #x000000001ab8f22d) #xfd35e931bb7df1e9))
(constraint (= (deobfucated #x0000000022bbd600) #xfb499155866029ff))
(constraint (= (deobfucated #x00000000266b7daf) #xfa3be98d979624af))
(constraint (= (deobfucated #x0000000039884b47) #xf31205ea16e50707))
(check-synth)